%chk=ok.chk
%mem=16GB
%nprocshared=12
#p ub3lyp/6-311++G(d,p) guess=mix opt=(calcfc,ts,noeigen) freq

tok.gjf

0 1
C   1.86088 0.326168 0.084749
C   0.655416 -0.281989 0.494197
C   -0.549659 -0.335233 -1.09007
C   -1.74379 -0.896566 -0.65463
C   -2.89806 -0.194835 -0.155849
C   -3.04406 1.13919 -0.013329
H   -0.52321 0.72276 -1.33709
H   0.105031 -0.955806 -1.69471
H   -1.80306 -1.98056 -0.634395
H   -3.73709 -0.82674 0.123807
F   1.84547 1.63218 -0.176916
F   2.62353 -0.328423 -0.788924
F   0.747847 -1.57767 0.830613
F   -0.050582 0.396025 1.4062
Cl   -4.54842 1.82127 0.59435
Cl   -1.75927 2.28046 -0.393338


